   30000
      15
   10007         1
   10006         1
   10005         1
   10004         1
   10003         1
   10002         1
   10001         1
   10000         1
    9999         1
    9998         1
    9997         1
    9996         1
    9995         1
    9994         1
    9993         1
